c instance by G2
c solution = 00110011000100110
c Known solution cost is 975 
p cnf 17 30
w 80 30 97 32 97 58 33 27 90 58 44 74 66 6 45 86 52
-16 -17 -12 0
-13 2 9 0
-14 2 -16 0
-1 -15 6 0
-11 -12 9 0
15 13 11 0
-2 15 -12 0
16 15 -2 0
12 1 7 0
-10 -13 8 0
-17 -5 -7 0
-16 4 17 0
-8 2 7 0
-12 -16 -5 0
-6 1 9 0
-7 15 6 0
1 -15 -9 0
1 16 9 0
10 -16 -2 0
2 -10 -16 0
-8 -11 -12 0
5 -7 12 0
4 -16 11 0
-10 12 9 0
-15 -16 -1 0
17 3 5 0
-11 17 -9 0
-3 13 -10 0
-7 -3 8 0
-1 -15 2 0
